minimize
obj: 1 x_1_ + 1 x_2_ + 1 x_3_ + 1 x_4_
subject to
c1_1: 1 t_1,1_ - 1 y_1,1_ <= 0
c2_1: 1 t_1,2_ - 1 y_1,1_ - 1 y_1,2_ <= 0
c3_1: 1 t_1,3_ - 1 y_1,2_ - 1 y_1,3_ <= 0
c4_1: 1 t_1,4_ - 1 y_1,3_ - 1 y_1,4_ <= 0
c5_1: 1 t_1,5_ - 1 y_1,4_ - 1 y_1,5_ <= 0
c6_1: 1 t_1,6_ - 1 y_1,5_ - 1 y_1,6_ <= 0
c7_1: 1 t_1,7_ - 1 y_1,6_ - 1 y_1,7_ <= 0
c8_1: 1 t_1,8_ - 1 y_1,7_ - 1 y_1,8_ <= 0
c9_1: 1 t_1,9_ - 1 y_1,8_ - 1 y_1,9_ <= 0
c10_1: 1 t_1,10_ - 1 y_1,9_ - 1 y_1,10_ <= 0
c11_1: 1 t_1,11_ - 1 y_1,10_ - 1 y_1,11_ <= 0
c12_1: 1 t_1,12_ - 1 y_1,11_ - 1 y_1,12_ <= 0
c13: 1 t_1,13_ - 1 y_1,12_ - 1 y_1,13_ <= 0
c14: 1 t_1,14_ - 1 y_1,13_ - 1 y_1,14_ <= 0
c15: 1 t_1,15_ - 1 y_1,14_ - 1 y_1,15_ <= 0
c16: 1 t_1,16_ - 1 y_1,15_ - 1 y_1,16_ <= 0
c17: 1 t_1,17_ - 1 y_1,16_ - 1 y_1,17_ <= 0
c18: 1 t_1,18_ - 1 y_1,17_ - 1 y_1,18_ <= 0
c19: 1 t_1,19_ - 1 y_1,18_ - 1 y_1,19_ <= 0
c20: 1 t_1,20_ - 1 y_1,19_ <= 0
c21: 1 t_2,1_ - 1 y_2,1_ <= 0
c22: 1 t_2,2_ - 1 y_2,1_ - 1 y_2,2_ <= 0
c23: 1 t_2,3_ - 1 y_2,2_ - 1 y_2,3_ <= 0
c24: 1 t_2,4_ - 1 y_2,3_ - 1 y_2,4_ <= 0
c25: 1 t_2,5_ - 1 y_2,4_ - 1 y_2,5_ <= 0
c26: 1 t_2,6_ - 1 y_2,5_ - 1 y_2,6_ <= 0
c27: 1 t_2,7_ - 1 y_2,6_ - 1 y_2,7_ <= 0
c28: 1 t_2,8_ - 1 y_2,7_ - 1 y_2,8_ <= 0
c29: 1 t_2,9_ - 1 y_2,8_ - 1 y_2,9_ <= 0
c30: 1 t_2,10_ - 1 y_2,9_ - 1 y_2,10_ <= 0
c31: 1 t_2,11_ - 1 y_2,10_ - 1 y_2,11_ <= 0
c32: 1 t_2,12_ - 1 y_2,11_ - 1 y_2,12_ <= 0
c33: 1 t_2,13_ - 1 y_2,12_ - 1 y_2,13_ <= 0
c34: 1 t_2,14_ - 1 y_2,13_ - 1 y_2,14_ <= 0
c35: 1 t_2,15_ - 1 y_2,14_ - 1 y_2,15_ <= 0
c36: 1 t_2,16_ - 1 y_2,15_ - 1 y_2,16_ <= 0
c37: 1 t_2,17_ - 1 y_2,16_ - 1 y_2,17_ <= 0
c38: 1 t_2,18_ - 1 y_2,17_ - 1 y_2,18_ <= 0
c39: 1 t_2,19_ - 1 y_2,18_ - 1 y_2,19_ <= 0
c40: 1 t_2,20_ - 1 y_2,19_ <= 0
c41: 1 t_3,1_ - 1 y_3,1_ <= 0
c42: 1 t_3,2_ - 1 y_3,1_ - 1 y_3,2_ <= 0
c43: 1 t_3,3_ - 1 y_3,2_ - 1 y_3,3_ <= 0
c44: 1 t_3,4_ - 1 y_3,3_ - 1 y_3,4_ <= 0
c45: 1 t_3,5_ - 1 y_3,4_ - 1 y_3,5_ <= 0
c46: 1 t_3,6_ - 1 y_3,5_ - 1 y_3,6_ <= 0
c47: 1 t_3,7_ - 1 y_3,6_ - 1 y_3,7_ <= 0
c48: 1 t_3,8_ - 1 y_3,7_ - 1 y_3,8_ <= 0
c49: 1 t_3,9_ - 1 y_3,8_ - 1 y_3,9_ <= 0
c50: 1 t_3,10_ - 1 y_3,9_ - 1 y_3,10_ <= 0
c51: 1 t_3,11_ - 1 y_3,10_ - 1 y_3,11_ <= 0
c52: 1 t_3,12_ - 1 y_3,11_ - 1 y_3,12_ <= 0
c53: 1 t_3,13_ - 1 y_3,12_ - 1 y_3,13_ <= 0
c54: 1 t_3,14_ - 1 y_3,13_ - 1 y_3,14_ <= 0
c55: 1 t_3,15_ - 1 y_3,14_ - 1 y_3,15_ <= 0
c56: 1 t_3,16_ - 1 y_3,15_ - 1 y_3,16_ <= 0
c57: 1 t_3,17_ - 1 y_3,16_ - 1 y_3,17_ <= 0
c58: 1 t_3,18_ - 1 y_3,17_ - 1 y_3,18_ <= 0
c59: 1 t_3,19_ - 1 y_3,18_ - 1 y_3,19_ <= 0
c60: 1 t_3,20_ - 1 y_3,19_ <= 0
c61: 1 t_4,1_ - 1 y_4,1_ <= 0
c62: 1 t_4,2_ - 1 y_4,1_ - 1 y_4,2_ <= 0
c63: 1 t_4,3_ - 1 y_4,2_ - 1 y_4,3_ <= 0
c64: 1 t_4,4_ - 1 y_4,3_ - 1 y_4,4_ <= 0
c65: 1 t_4,5_ - 1 y_4,4_ - 1 y_4,5_ <= 0
c66: 1 t_4,6_ - 1 y_4,5_ - 1 y_4,6_ <= 0
c67: 1 t_4,7_ - 1 y_4,6_ - 1 y_4,7_ <= 0
c68: 1 t_4,8_ - 1 y_4,7_ - 1 y_4,8_ <= 0
c69: 1 t_4,9_ - 1 y_4,8_ - 1 y_4,9_ <= 0
c70: 1 t_4,10_ - 1 y_4,9_ - 1 y_4,10_ <= 0
c71: 1 t_4,11_ - 1 y_4,10_ - 1 y_4,11_ <= 0
c72: 1 t_4,12_ - 1 y_4,11_ - 1 y_4,12_ <= 0
c73: 1 t_4,13_ - 1 y_4,12_ - 1 y_4,13_ <= 0
c74: 1 t_4,14_ - 1 y_4,13_ - 1 y_4,14_ <= 0
c75: 1 t_4,15_ - 1 y_4,14_ - 1 y_4,15_ <= 0
c76: 1 t_4,16_ - 1 y_4,15_ - 1 y_4,16_ <= 0
c77: 1 t_4,17_ - 1 y_4,16_ - 1 y_4,17_ <= 0
c78: 1 t_4,18_ - 1 y_4,17_ - 1 y_4,18_ <= 0
c79: 1 t_4,19_ - 1 y_4,18_ - 1 y_4,19_ <= 0
c80: 1 t_4,20_ - 1 y_4,19_ <= 0
c81: 4 t_1,1_ + 4 t_2,1_ + 4 t_3,1_ + 4 t_4,1_ + 3.2022160664819954 t_1,2_ + 3.2022160664819954 t_2,2_ + 3.2022160664819954 t_3,2_ + 3.2022160664819954 t_4,2_ + 2.4930747922437675 t_1,3_ + 2.4930747922437675 t_2,3_ + 2.4930747922437675 t_3,3_ + 2.4930747922437675 t_4,3_ + 1.872576177285318 t_1,4_ + 1.872576177285318 t_2,4_ + 1.872576177285318 t_3,4_ + 1.872576177285318 t_4,4_ + 1.3407202216066483 t_1,5_ + 1.3407202216066483 t_2,5_ + 1.3407202216066483 t_3,5_ + 1.3407202216066483 t_4,5_ + 0.8975069252077565 t_1,6_ + 0.8975069252077565 t_2,6_ + 0.8975069252077565 t_3,6_ + 0.8975069252077565 t_4,6_ + 0.5429362880886428 t_1,7_ + 0.5429362880886428 t_2,7_ + 0.5429362880886428 t_3,7_ + 0.5429362880886428 t_4,7_ + 0.27700831024930744 t_1,8_ + 0.27700831024930744 t_2,8_ + 0.27700831024930744 t_3,8_ + 0.27700831024930744 t_4,8_ + 0.09972299168975075 t_1,9_ + 0.09972299168975075 t_2,9_ + 0.09972299168975075 t_3,9_ + 0.09972299168975075 t_4,9_ + 0.011080332409972344 t_1,10_ + 0.011080332409972344 t_2,10_ + 0.011080332409972344 t_3,10_ + 0.011080332409972344 t_4,10_ + 0.011080332409972275 t_1,11_ + 0.011080332409972275 t_2,11_ + 0.011080332409972275 t_3,11_ + 0.011080332409972275 t_4,11_ + 0.09972299168975075 t_1,12_ + 0.09972299168975075 t_2,12_ + 0.09972299168975075 t_3,12_ + 0.09972299168975075 t_4,12_ + 0.27700831024930733 t_1,13_ + 0.27700831024930733 t_2,13_ + 0.27700831024930733 t_3,13_ + 0.27700831024930733 t_4,13_ + 0.5429362880886428 t_1,14_ + 0.5429362880886428 t_2,14_ + 0.5429362880886428 t_3,14_ + 0.5429362880886428 t_4,14_ + 0.8975069252077559 t_1,15_ + 0.8975069252077559 t_2,15_ + 0.8975069252077559 t_3,15_ + 0.8975069252077559 t_4,15_ + 1.3407202216066483 t_1,16_ + 1.3407202216066483 t_2,16_ + 1.3407202216066483 t_3,16_ + 1.3407202216066483 t_4,16_ + 1.872576177285318 t_1,17_ + 1.872576177285318 t_2,17_ + 1.872576177285318 t_3,17_ + 1.872576177285318 t_4,17_ + 2.4930747922437675 t_1,18_ + 2.4930747922437675 t_2,18_ + 2.4930747922437675 t_3,18_ + 2.4930747922437675 t_4,18_ + 3.2022160664819936 t_1,19_ + 3.2022160664819936 t_2,19_ + 3.2022160664819936 t_3,19_ + 3.2022160664819936 t_4,19_ + 4 t_1,20_ + 4 t_2,20_ + 4 t_3,20_ + 4 t_4,20_ <= 1
c1: 1 y_1,1_ + 1 y_1,2_ + 1 y_1,3_ + 1 y_1,4_ + 1 y_1,5_ + 1 y_1,6_ + 1 y_1,7_ + 1 y_1,8_ + 1 y_1,9_ + 1 y_1,10_ + 1 y_1,11_ + 1 y_1,12_ + 1 y_1,13_ + 1 y_1,14_ + 1 y_1,15_ + 1 y_1,16_ + 1 y_1,17_ + 1 y_1,18_ + 1 y_1,19_ = 1
c2: 1 t_1,1_ + 1 t_1,2_ + 1 t_1,3_ + 1 t_1,4_ + 1 t_1,5_ + 1 t_1,6_ + 1 t_1,7_ + 1 t_1,8_ + 1 t_1,9_ + 1 t_1,10_ + 1 t_1,11_ + 1 t_1,12_ + 1 t_1,13_ + 1 t_1,14_ + 1 t_1,15_ + 1 t_1,16_ + 1 t_1,17_ + 1 t_1,18_ + 1 t_1,19_ + 1 t_1,20_ = 1
c3: -2 t_1,1_ - 1.7894736842105265 t_1,2_ - 1.5789473684210527 t_1,3_ - 1.3684210526315788 t_1,4_ - 1.1578947368421053 t_1,5_ - 0.9473684210526317 t_1,6_ - 0.736842105263158 t_1,7_ - 0.5263157894736842 t_1,8_ - 0.3157894736842106 t_1,9_ - 0.10526315789473706 t_1,10_ + 0.10526315789473673 t_1,11_ + 0.3157894736842106 t_1,12_ + 0.5263157894736841 t_1,13_ + 0.736842105263158 t_1,14_ + 0.9473684210526314 t_1,15_ + 1.1578947368421053 t_1,16_ + 1.3684210526315788 t_1,17_ + 1.5789473684210527 t_1,18_ + 1.789473684210526 t_1,19_ + 2 t_1,20_ - 1 x_1_ = 0
c4: 1 y_2,1_ + 1 y_2,2_ + 1 y_2,3_ + 1 y_2,4_ + 1 y_2,5_ + 1 y_2,6_ + 1 y_2,7_ + 1 y_2,8_ + 1 y_2,9_ + 1 y_2,10_ + 1 y_2,11_ + 1 y_2,12_ + 1 y_2,13_ + 1 y_2,14_ + 1 y_2,15_ + 1 y_2,16_ + 1 y_2,17_ + 1 y_2,18_ + 1 y_2,19_ = 1
c5: 1 t_2,1_ + 1 t_2,2_ + 1 t_2,3_ + 1 t_2,4_ + 1 t_2,5_ + 1 t_2,6_ + 1 t_2,7_ + 1 t_2,8_ + 1 t_2,9_ + 1 t_2,10_ + 1 t_2,11_ + 1 t_2,12_ + 1 t_2,13_ + 1 t_2,14_ + 1 t_2,15_ + 1 t_2,16_ + 1 t_2,17_ + 1 t_2,18_ + 1 t_2,19_ + 1 t_2,20_ = 1
c6: -2 t_2,1_ - 1.7894736842105265 t_2,2_ - 1.5789473684210527 t_2,3_ - 1.3684210526315788 t_2,4_ - 1.1578947368421053 t_2,5_ - 0.9473684210526317 t_2,6_ - 0.736842105263158 t_2,7_ - 0.5263157894736842 t_2,8_ - 0.3157894736842106 t_2,9_ - 0.10526315789473706 t_2,10_ + 0.10526315789473673 t_2,11_ + 0.3157894736842106 t_2,12_ + 0.5263157894736841 t_2,13_ + 0.736842105263158 t_2,14_ + 0.9473684210526314 t_2,15_ + 1.1578947368421053 t_2,16_ + 1.3684210526315788 t_2,17_ + 1.5789473684210527 t_2,18_ + 1.789473684210526 t_2,19_ + 2 t_2,20_ - 1 x_2_ = 0
c7: 1 y_3,1_ + 1 y_3,2_ + 1 y_3,3_ + 1 y_3,4_ + 1 y_3,5_ + 1 y_3,6_ + 1 y_3,7_ + 1 y_3,8_ + 1 y_3,9_ + 1 y_3,10_ + 1 y_3,11_ + 1 y_3,12_ + 1 y_3,13_ + 1 y_3,14_ + 1 y_3,15_ + 1 y_3,16_ + 1 y_3,17_ + 1 y_3,18_ + 1 y_3,19_ = 1
c8: 1 t_3,1_ + 1 t_3,2_ + 1 t_3,3_ + 1 t_3,4_ + 1 t_3,5_ + 1 t_3,6_ + 1 t_3,7_ + 1 t_3,8_ + 1 t_3,9_ + 1 t_3,10_ + 1 t_3,11_ + 1 t_3,12_ + 1 t_3,13_ + 1 t_3,14_ + 1 t_3,15_ + 1 t_3,16_ + 1 t_3,17_ + 1 t_3,18_ + 1 t_3,19_ + 1 t_3,20_ = 1
c9: -2 t_3,1_ - 1.7894736842105265 t_3,2_ - 1.5789473684210527 t_3,3_ - 1.3684210526315788 t_3,4_ - 1.1578947368421053 t_3,5_ - 0.9473684210526317 t_3,6_ - 0.736842105263158 t_3,7_ - 0.5263157894736842 t_3,8_ - 0.3157894736842106 t_3,9_ - 0.10526315789473706 t_3,10_ + 0.10526315789473673 t_3,11_ + 0.3157894736842106 t_3,12_ + 0.5263157894736841 t_3,13_ + 0.736842105263158 t_3,14_ + 0.9473684210526314 t_3,15_ + 1.1578947368421053 t_3,16_ + 1.3684210526315788 t_3,17_ + 1.5789473684210527 t_3,18_ + 1.789473684210526 t_3,19_ + 2 t_3,20_ - 1 x_3_ = 0
c10: 1 y_4,1_ + 1 y_4,2_ + 1 y_4,3_ + 1 y_4,4_ + 1 y_4,5_ + 1 y_4,6_ + 1 y_4,7_ + 1 y_4,8_ + 1 y_4,9_ + 1 y_4,10_ + 1 y_4,11_ + 1 y_4,12_ + 1 y_4,13_ + 1 y_4,14_ + 1 y_4,15_ + 1 y_4,16_ + 1 y_4,17_ + 1 y_4,18_ + 1 y_4,19_ = 1
c11: 1 t_4,1_ + 1 t_4,2_ + 1 t_4,3_ + 1 t_4,4_ + 1 t_4,5_ + 1 t_4,6_ + 1 t_4,7_ + 1 t_4,8_ + 1 t_4,9_ + 1 t_4,10_ + 1 t_4,11_ + 1 t_4,12_ + 1 t_4,13_ + 1 t_4,14_ + 1 t_4,15_ + 1 t_4,16_ + 1 t_4,17_ + 1 t_4,18_ + 1 t_4,19_ + 1 t_4,20_ = 1
c12: -2 t_4,1_ - 1.7894736842105265 t_4,2_ - 1.5789473684210527 t_4,3_ - 1.3684210526315788 t_4,4_ - 1.1578947368421053 t_4,5_ - 0.9473684210526317 t_4,6_ - 0.736842105263158 t_4,7_ - 0.5263157894736842 t_4,8_ - 0.3157894736842106 t_4,9_ - 0.10526315789473706 t_4,10_ + 0.10526315789473673 t_4,11_ + 0.3157894736842106 t_4,12_ + 0.5263157894736841 t_4,13_ + 0.736842105263158 t_4,14_ + 0.9473684210526314 t_4,15_ + 1.1578947368421053 t_4,16_ + 1.3684210526315788 t_4,17_ + 1.5789473684210527 t_4,18_ + 1.789473684210526 t_4,19_ + 2 t_4,20_ - 1 x_4_ = 0
Bounds
x_1_ <= 2
x_2_ <= 2
x_3_ <= 2
x_4_ <= 2
t_1,1_ >= 0
t_2,1_ >= 0
t_3,1_ >= 0
t_4,1_ >= 0
t_1,2_ >= 0
t_2,2_ >= 0
t_3,2_ >= 0
t_4,2_ >= 0
t_1,3_ >= 0
t_2,3_ >= 0
t_3,3_ >= 0
t_4,3_ >= 0
t_1,4_ >= 0
t_2,4_ >= 0
t_3,4_ >= 0
t_4,4_ >= 0
t_1,5_ >= 0
t_2,5_ >= 0
t_3,5_ >= 0
t_4,5_ >= 0
t_1,6_ >= 0
t_2,6_ >= 0
t_3,6_ >= 0
t_4,6_ >= 0
t_1,7_ >= 0
t_2,7_ >= 0
t_3,7_ >= 0
t_4,7_ >= 0
t_1,8_ >= 0
t_2,8_ >= 0
t_3,8_ >= 0
t_4,8_ >= 0
t_1,9_ >= 0
t_2,9_ >= 0
t_3,9_ >= 0
t_4,9_ >= 0
t_1,10_ >= 0
t_2,10_ >= 0
t_3,10_ >= 0
t_4,10_ >= 0
t_1,11_ >= 0
t_2,11_ >= 0
t_3,11_ >= 0
t_4,11_ >= 0
t_1,12_ >= 0
t_2,12_ >= 0
t_3,12_ >= 0
t_4,12_ >= 0
t_1,13_ >= 0
t_2,13_ >= 0
t_3,13_ >= 0
t_4,13_ >= 0
t_1,14_ >= 0
t_2,14_ >= 0
t_3,14_ >= 0
t_4,14_ >= 0
t_1,15_ >= 0
t_2,15_ >= 0
t_3,15_ >= 0
t_4,15_ >= 0
t_1,16_ >= 0
t_2,16_ >= 0
t_3,16_ >= 0
t_4,16_ >= 0
t_1,17_ >= 0
t_2,17_ >= 0
t_3,17_ >= 0
t_4,17_ >= 0
t_1,18_ >= 0
t_2,18_ >= 0
t_3,18_ >= 0
t_4,18_ >= 0
t_1,19_ >= 0
t_2,19_ >= 0
t_3,19_ >= 0
t_4,19_ >= 0
t_1,20_ >= 0
t_2,20_ >= 0
t_3,20_ >= 0
t_4,20_ >= 0
x_1_ >= -2
x_2_ >= -2
x_3_ >= -2
x_4_ >= -2
Binary
y_1,1_
y_2,1_
y_3,1_
y_4,1_
y_1,2_
y_2,2_
y_3,2_
y_4,2_
y_1,3_
y_2,3_
y_3,3_
y_4,3_
y_1,4_
y_2,4_
y_3,4_
y_4,4_
y_1,5_
y_2,5_
y_3,5_
y_4,5_
y_1,6_
y_2,6_
y_3,6_
y_4,6_
y_1,7_
y_2,7_
y_3,7_
y_4,7_
y_1,8_
y_2,8_
y_3,8_
y_4,8_
y_1,9_
y_2,9_
y_3,9_
y_4,9_
y_1,10_
y_2,10_
y_3,10_
y_4,10_
y_1,11_
y_2,11_
y_3,11_
y_4,11_
y_1,12_
y_2,12_
y_3,12_
y_4,12_
y_1,13_
y_2,13_
y_3,13_
y_4,13_
y_1,14_
y_2,14_
y_3,14_
y_4,14_
y_1,15_
y_2,15_
y_3,15_
y_4,15_
y_1,16_
y_2,16_
y_3,16_
y_4,16_
y_1,17_
y_2,17_
y_3,17_
y_4,17_
y_1,18_
y_2,18_
y_3,18_
y_4,18_
y_1,19_
y_2,19_
y_3,19_
y_4,19_
End
